Welcome to sphere packing routines, relation testing division.
Welcome to Section A_9.1.
Enter depth bound:  Enter slop:  Depth bound = 32
slop = 0.05
Starting time:  	Wed Apr 29 14:52:08 1998

Starting case 1:
2.696000000000000174	2.828427124746190290
2.450000000000000177	2.510000000000000230
2.000000000000000000	2.510000000000000230
2.770000000000000017	2.770000000000000017
2.000000000000000000	2.510000000000000230
2.450000000000000177	2.510000000000000230
cellcount    =        937902049		maxdepth = 7
deltacut     =                0
impossible   =                0	domaincut    =                0
acutecut     =                0		verifycount  =        908592610
partialcount =                0		diff         =         29309439
Verification succeeded.

Done.
Ending time:    	Thu Apr 30 02:25:24 1998

Elapsed time: 41596 seconds
diff = -1559.5		22547.9 cells per second


